$molecule
0 1
C         -1.82075        1.21221        0.00007
C         -0.42782        1.22011        0.00011
C          0.24287        0.00002       -0.00001
C         -0.42786       -1.22012        0.00003
C         -2.51579        0.00002        0.00000
H         -2.36155        2.15093       -0.00002
H          0.13769        2.14227        0.00006
H          0.13768       -2.14225       -0.00012
H         -3.59985       -0.00001       -0.00023
N          1.70520        0.00000       -0.00004
O          2.29572       -1.10489        0.00011
O          2.29576        1.10486       -0.00013
C         -1.82075       -1.21220       -0.00006
H         -2.36162       -2.15087       -0.00013
$end

$rem
   !SCF_GUESS         read
   !SKIP_CIS_RPA      TRUE
   METHOD             wB97XD
   RPA                TRUE
   BASIS              6-31G
   CIS_N_ROOTS        100
   CIS_SINGLETS       TRUE
   CIS_TRIPLETS       FALSE
   MAKE_CUBE_FILES    TRUE
   PLOTS              TRUE
   STS_MOM            TRUE
   SYM_IGNORE         TRUE
   SYMMETRY           FALSE
$end

$plots
   grid_points                    100 100 100
   total_density                  0-100
   transition_density             1-100
$end
































